data_Ni(PyC-m-NH2)2-4H2O

_audit_creation_method            TOPAS

_chemical_name_common             'Ni(PyC-m-NH2)2-4H2O'
_chemical_formula_moiety          '2(C6 H5 N2 O2), Ni, 4(H2 O)'  
_chemical_formula_sum             'C12 H18 N4 Ni O8'
_chemical_formula_weight          404.987


_cell_length_a 9.4547(7)
_cell_length_b 6.8950(7)
_cell_length_c 6.7321(6)
_cell_angle_alpha 102.378(6)
_cell_angle_beta 107.930(6)
_cell_angle_gamma 105.239(5)
_cell_volume 381.46(6)
_symmetry_space_group_name_H-M P-1
_symmetry_space_group_name_Hall '-P 1'
_symmetry_cell_setting triclinic
_symmetry_Int_Tables_number 2

loop_
	_symmetry_equiv_pos_as_xyz
	 'x, y, z '
	 '-x, -y, -z '
	 
_cell_formula_units_Z             1
_cell_measurement_temperature     295

_exptl_crystal_description        'microcrystalline powder'
_exptl_crystal_colour             blue

_exptl_crystal_density_diffrn     1.763
	 
loop_
_atom_site_label
_atom_site_type_symbol
_atom_site_symmetry_multiplicity
_atom_site_fract_x
_atom_site_fract_y
_atom_site_fract_z
_atom_site_occupancy
_atom_site_B_iso_or_equiv
Ni1 Ni 1 0 0 0 1 3.30(14)
O03 O 2 0.0602(17) 0.2368(12) -0.1483(14)   1 1.36(9)
O06 O 2 0.0699(12) 0.2354(14) 0.2920(12)    1 1.36(9)
H01 H 2 -0.031(2) 0.2459(16) -0.2529(13)    1 1.36(9)
H02 H 2 0.1523(18) 0.2416(17) -0.1821(19)   1 1.36(9)
H03 H 2 0.1660(13) 0.2427(19) 0.4019(12)    1 1.36(9)
H04 H 2 -0.0177(16) 0.247(2) 0.3311(13)     1 1.36(9)
O012 O 2 -0.7248(6) 0.1952(11) -0.3469(10) 1 1.36(9)
O022 O 2 -0.8179(4) -0.1496(11) -0.4394(7) 1 1.36(9)
C032 C 2 -0.4021(5) 0.2109(6) -0.1405(6)   1 1.36(9)
C042 C 2 -0.5021(4) -0.1707(6) -0.2944(6)  1 1.36(9)
C052 C 2 -0.3417(5) -0.1612(7) -0.2143(7)  1 1.36(9)
H062 H 2 -0.3144(7) -0.3055(8) -0.2500(10) 1 1.36(9)
H072 H 2 -0.5871(8) -0.4946(6) -0.3889(13) 1 1.36(9)
N082 N 2 -0.2208(4) 0.0195(8) -0.0899(6)   1 1.36(9)
N092 N 2 -0.6171(6) -0.3611(6) -0.3907(9)  1 1.36(9)
C102 C 2 -0.5324(4) 0.0236(6) -0.2625(5)   1 1.36(9)
H112 H 2 -0.7323(5) -0.3633(8) -0.4383(9)  1 1.36(9)
C122 C 2 -0.6948(4) 0.0229(10) -0.3499(7)  1 1.36(9)
C132 C 2 -0.2490(4) 0.2048(7) -0.0536(6)   1 1.36(9)
H142 H 2 -0.1462(5) 0.3474(8) 0.0488(8)    1 1.36(9)
H152 H 2 -0.4172(6) 0.3636(6) -0.1017(10)  1 1.36(9)

loop_
    _geom_bond_atom_site_label_1
    _geom_bond_atom_site_label_2
    _geom_bond_distance
    _geom_bond_multiplicity
	 O012 C122 1.28920(1) 2 

loop_
    _geom_angle_atom_site_label_1
    _geom_angle_atom_site_label_2
    _geom_angle_atom_site_label_3
    _geom_angle
    _geom_angle_site_symmetry_1
    _geom_angle_site_symmetry_2
    _geom_angle_site_symmetry_3
	 O012 C122 O022 115.150(1)  1_555  1_555  1_555
	 
# Powder diffraction data for histogram  1
#==============================================================================

# 4. INSTRUMENT CHARACTERIZATION

_exptl_special_details
; ?
;

# if regions of the data are excluded, the reason(s) are supplied here:
_pd_proc_info_excluded_regions
;
 ?
;

# The following item is used to identify the equipment used to record
# the powder pattern when the diffractogram was measured at a laboratory
# other than the authors' home institution, e.g. when neutron or synchrotron
# radiation is used.

_pd_instr_location
; 
'Stoe Stadi P, Debye-Scherrer mode, MPI-FKF, Stuttgart, Germany'
;
_pd_calibration_special_details           # description of the method used
                                          # to calibrate the instrument
; 
'Standard Reference Materials NIST SRM640c (Silicon powder)'
;

_diffrn_ambient_temperature       295
_diffrn_source                    ?
_diffrn_source_target             ?
_diffrn_source_type               'Cu-tube'
_diffrn_measurement_device_type   'Stoe-Stadi-P'
_diffrn_detector
; 
 STOE Mythen 1K 
;
_diffrn_detector_type             ?       # make or model of detector

_pd_meas_scan_method              'step'
_pd_meas_special_details
;  ?
;

# The following two items identify the program(s) used (if appropriate).
_computing_data_collection        ?
_computing_data_reduction         ?

# Describe any processing performed on the data, prior to refinement.
# For example: a manual Lp correction or a precomputed absorption correction
_pd_proc_info_data_reduction      'binning'

# The following item is used for angular dispersive measurements only.

_diffrn_radiation_monochromator   'Johannson Ge(111) primary beam monochromator'

# The following items are used to define the size of the instrument.
# Not all distances are appropriate for all instrument types.

_pd_instr_dist_src/mono           ?
_pd_instr_dist_mono/spec          ?
_pd_instr_dist_src/spec           ?
_pd_instr_dist_spec/anal          ?
_pd_instr_dist_anal/detc          ?
_pd_instr_dist_spec/detc          ?

# 5. Specimen size and mounting information

# The next three fields give the specimen dimensions in mm.  The equatorial
# plane contains the incident and diffracted beam.

_pd_spec_size_axial               ?       # perpendicular to
                                          # equatorial plane

_pd_spec_size_equat               ?       # parallel to
                                          # scattering vector
                                          # in transmission

_pd_spec_size_thick               ?       # parallel to
                                          # scattering vector
                                          # in reflection

_pd_spec_mounting                         # This field should be
                                          # used to give details of the
                                          # container.
; 
'0.5 mm borosilicate glass capillary'
;

_pd_spec_mount_mode               'Debye-Scherrer'

_pd_spec_shape                    'cylinder'

_diffrn_radiation_probe                X-ray
_diffrn_radiation_wavelength           1.5406
_diffrn_radiation_type                 'Cu K\a'
_refine_ls_number_parameters           51
_pd_proc_ls_prof_R_factor              0.0342
_pd_proc_ls_prof_wR_factor             0.0497
_refine_ls_R_Fsqd_factor               0.0225
_refine_ls_goodness_of_fit_all         0.0575
_pd_proc_ls_background_function
;   
'Chebyshev polynomial'
;

_exptl_absorpt_process_details
;   
 ?
;
_exptl_absorpt_correction_T_min        ?
_exptl_absorpt_correction_T_max        ?

_pd_proc_ls_profile_function
;
 Fundamental parameters
;
_pd_proc_ls_peak_cutoff 0.00100
_pd_proc_info_datetime                 ?
_pd_calc_method                        "Rietveld Refinement"

#---- raw/calc data loop -----
_pd_meas_2theta_range_min              2.0
_pd_meas_2theta_range_max              110.0
_pd_meas_2theta_range_inc              0.015
_pd_proc_2theta_range_min              4.0
_pd_proc_2theta_range_max              110.0
_pd_proc_2theta_range_inc              0.015

#====================================================================== 