data_Ni(PyC-m-NH2)2

# start Validation Reply Form
_vrf_PLAT601_Ni(PyC-m-NH2)2
;
PROBLEM: Unit Cell Contains Solvent Accessible VOIDS of .        169 Ang**3
RESPONSE: 
The sample is a metal-organic framework, expected to contain voids.
;

# end Validation Reply Form

_audit_creation_method            TOPAS

_chemical_name_common             'Ni(PyC-m-NH2)2'
_chemical_formula_moiety          '2(C6 H5 N2 O2), Ni'  
_chemical_formula_sum             'C12 H10 N4 Ni O4' 
_chemical_formula_weight          332.9256


_cell_length_a 11.8787(4)
_cell_length_b 7.09200(18)
_cell_length_c 10.6184(3)
_cell_angle_alpha 90
_cell_angle_beta 90
_cell_angle_gamma 90
_cell_volume 894.54(5)
_symmetry_space_group_name_H-M Pnn2
_symmetry_space_group_name_Hall 'P 2 -2n'
_symmetry_cell_setting orthorhombic
_symmetry_Int_Tables_number 34

loop_
	_symmetry_equiv_pos_as_xyz
	 'x, y, z '
	 '-x+1/2, y+1/2, z+1/2 '
	 '-x, -y, z '
	 'x+1/2, -y+1/2, z+1/2 '
	 
_cell_formula_units_Z             2
_cell_measurement_temperature     295

_exptl_crystal_description        'microcrystalline powder'
_exptl_crystal_colour             blue

_exptl_crystal_density_diffrn     1.236
	 
loop_
_atom_site_label
_atom_site_type_symbol
_atom_site_symmetry_multiplicity
_atom_site_fract_x
_atom_site_fract_y
_atom_site_fract_z
_atom_site_occupancy
_atom_site_B_iso_or_equiv
Ni1 Ni 2 0.5 0.5 0.0278(2)  1 1.79(8)
O012 O 4 0.6109(5) 0.7077(9) 0.0653(4)  1 1.12(9)
O022 O 4 0.6099(5) 0.4550(8) 0.1819(5)  1 1.12(9)
C032 C 4 0.7678(4) 0.8946(6) 0.2329(3)  1 1.12(9)
C042 C 4 0.7883(4) 0.5981(5) 0.3414(3)  1 1.12(9)
C052 C 4 0.8745(4) 0.6841(6) 0.4144(3)  1 1.12(9)
H062 H 4 0.9214(4) 0.6012(7) 0.4831(4)  1 1.12(9)
H072 H 4 0.7921(5) 0.3589(6) 0.4484(4)  1 1.12(9)
N082 N 4 0.8993(4) 0.8667(6) 0.4050(3)  1 1.12(9)
N092 N 4 0.7582(5) 0.4218(6) 0.3692(4)  1 1.12(9)
C102 C 4 0.7360(3) 0.7061(6) 0.2442(3)  1 1.12(9)
H112 H 4 0.6922(5) 0.3660(6) 0.3185(4)  1 1.12(9)
C122 C 4 0.6502(4) 0.6217(7) 0.1629(4)  1 1.12(9)
C132 C 4 0.8477(4) 0.9721(6) 0.3150(3)  1 1.12(9)
H142 H 4 0.8710(5) 1.1201(6) 0.3114(4)  1 1.12(9)
H152 H 4 0.7279(4) 0.9872(6) 0.1646(3)  1 1.12(9)

loop_
    _geom_bond_atom_site_label_1
    _geom_bond_atom_site_label_2
    _geom_bond_distance
    _geom_bond_multiplicity
	 O012 C122 1.28920(1) 2 

loop_
    _geom_angle_atom_site_label_1
    _geom_angle_atom_site_label_2
    _geom_angle_atom_site_label_3
    _geom_angle
    _geom_angle_site_symmetry_1
    _geom_angle_site_symmetry_2
    _geom_angle_site_symmetry_3
	 O012 C122 O022 115.150(1)  1_555  1_555  1_555
	 
# Powder diffraction data for histogram  1
#==============================================================================

# 4. INSTRUMENT CHARACTERIZATION

_exptl_special_details
; ?
;

# if regions of the data are excluded, the reason(s) are supplied here:
_pd_proc_info_excluded_regions
;
 ?
;

# The following item is used to identify the equipment used to record
# the powder pattern when the diffractogram was measured at a laboratory
# other than the authors' home institution, e.g. when neutron or synchrotron
# radiation is used.

_pd_instr_location
; 
'Stoe Stadi P, Debye-Scherrer mode, MPI-FKF, Stuttgart, Germany'
;
_pd_calibration_special_details           # description of the method used
                                          # to calibrate the instrument
; 
'Standard Reference Materials NIST SRM640c (Silicon powder)'
;

_diffrn_ambient_temperature       295
_diffrn_source                    ?
_diffrn_source_target             ?
_diffrn_source_type               'Cu-tube'
_diffrn_measurement_device_type   'Stoe-Stadi-P'
_diffrn_detector
; 
 STOE Mythen 1K 
;
_diffrn_detector_type             ?       # make or model of detector

_pd_meas_scan_method              'step'
_pd_meas_special_details
;  ?
;

# The following two items identify the program(s) used (if appropriate).
_computing_data_collection        ?
_computing_data_reduction         ?

# Describe any processing performed on the data, prior to refinement.
# For example: a manual Lp correction or a precomputed absorption correction
_pd_proc_info_data_reduction      'binning'

# The following item is used for angular dispersive measurements only.

_diffrn_radiation_monochromator   'Johannson Ge(111) primary beam monochromator'

# The following items are used to define the size of the instrument.
# Not all distances are appropriate for all instrument types.

_pd_instr_dist_src/mono           ?
_pd_instr_dist_mono/spec          ?
_pd_instr_dist_src/spec           ?
_pd_instr_dist_spec/anal          ?
_pd_instr_dist_anal/detc          ?
_pd_instr_dist_spec/detc          ?

# 5. Specimen size and mounting information

# The next three fields give the specimen dimensions in mm.  The equatorial
# plane contains the incident and diffracted beam.

_pd_spec_size_axial               ?       # perpendicular to
                                          # equatorial plane

_pd_spec_size_equat               ?       # parallel to
                                          # scattering vector
                                          # in transmission

_pd_spec_size_thick               ?       # parallel to
                                          # scattering vector
                                          # in reflection

_pd_spec_mounting                         # This field should be
                                          # used to give details of the
                                          # container.
; 
'0.5 mm borosilicate glass capillary'
;

_pd_spec_mount_mode               'Debye-Scherrer'

_pd_spec_shape                    'cylinder'

_diffrn_radiation_probe                X-ray
_diffrn_radiation_wavelength           1.5406
_diffrn_radiation_type                 'Cu K\a'
_refine_ls_number_parameters           42
_pd_proc_ls_prof_R_factor              0.0406
_pd_proc_ls_prof_wR_factor             0.0575
_refine_ls_R_Fsqd_factor               0.0480
_refine_ls_goodness_of_fit_all         0.0683
_pd_proc_ls_background_function
;   
'Chebyshev polynomial'
;

_exptl_absorpt_process_details
;   
 ?
;
_exptl_absorpt_correction_T_min        ?
_exptl_absorpt_correction_T_max        ?

_pd_proc_ls_profile_function
;
 Fundamental parameters
;
_pd_proc_ls_peak_cutoff 0.00100
_pd_proc_info_datetime                 ?
_pd_calc_method                        "Rietveld Refinement"

#---- raw/calc data loop -----
_pd_meas_2theta_range_min              2.0
_pd_meas_2theta_range_max              110.0
_pd_meas_2theta_range_inc              0.015
_pd_proc_2theta_range_min              4.0
_pd_proc_2theta_range_max              110.0
_pd_proc_2theta_range_inc              0.015

#====================================================================== 